&CONTROL
    calculation   = "scf"
    tstress=.true.
    tprnfor=.true.
    prefix='LiH'
    outdir='output'
    pseudo_dir='../pseudo'
    verbosity='high'
    etot_conv_thr=1.0D-8
    forc_conv_thr = 1.00000D-7
/
&SYSTEM
    ibrav       = 2
    nat         = 2
    ntyp        = 2
    nbnd        = 8
    celldm(1)   = 7.565120956 
    ecutwfc     =  100
    ecutrho     =  1000
    occupations = "fixed"
    smearing    = "gaussian"
    degauss     =  1.00000e-02
    noncolin    = .false.
    lspinorb    = .false.
/
&ELECTRONS
   electron_maxstep = 2000
   diago_full_acc   = .true.
   conv_thr         = 1.0D-12
   mixing_beta      = 0.1
   mixing_mode      = 'plain'
   mixing_ndim      = 24
   diagonalization  = 'david'
   diago_david_ndim = 48
   !diagonalization  = 'cg'
   !diago_cg_maxiter = 10000
/
&IONS
    trust_radius_max=1D-3
    trust_radius_min=1D-9
    trust_radius_ini=1D-6
/
&CELL
    cell_dofree    = "all"
    cell_dynamics  = "bfgs"
    press_conv_thr =  0.01
/

ATOMIC_SPECIES
Li     6.941  Li.pz-n-nc.UPF
H     1.0079  H.pz-n-nc.UPF
ATOMIC_POSITIONS {crystal}
Li       0.0000000000    0.0000000000    0.000000000
H        0.5000000000    0.5000000000    0.500000000
K_POINTS automatic
 24 24 24  0 0 0

